# Solution for model respiration_srl_ilp
# Objective value = 7.5164236352212281e+00
Z_436_7_0 0
Z_436_7_1 0
Z_436_7_2 0
Z_436_7_3 0
Z_436_7_4 1
Z_436_2_0 0
Z_436_2_1 0
Z_436_2_2 0
Z_436_2_3 0
Z_436_2_4 1
Z_436_4_0 0
Z_436_4_1 0
Z_436_4_2 0
Z_436_4_3 0
Z_436_4_4 1
Z_436_5_0 0
Z_436_5_1 0
Z_436_5_2 0
Z_436_5_3 0
Z_436_5_4 1
Z_436_1_0 0
Z_436_1_1 0
Z_436_1_2 0
Z_436_1_3 0
Z_436_1_4 1
Z_436_6_0 0
Z_436_6_1 0
Z_436_6_2 0
Z_436_6_3 0
Z_436_6_4 1
Z_436_0_0 0
Z_436_0_1 0
Z_436_0_2 1
Z_436_0_3 0
Z_436_0_4 0
Z_55_0_0 0
Z_55_0_1 0
Z_55_0_2 1
Z_55_0_3 0
Z_55_0_4 0
Z_599_0_0 0
Z_599_0_1 0
Z_599_0_2 0
Z_599_0_3 0
Z_599_0_4 1
Z_616_0_0 0
Z_616_0_1 0
Z_616_0_2 1
Z_616_0_3 0
Z_616_0_4 0
Z_589_0_0 0
Z_589_0_1 0
Z_589_0_2 1
Z_589_0_3 0
Z_589_0_4 0
Z_203_0_0 0
Z_203_0_1 0
Z_203_0_2 1
Z_203_0_3 0
Z_203_0_4 0
